EAV>WCSP 25 4 72 10000000
4 4 4 4 4 4 4 4 4 4 4 4 4 4 4 4 4 4 4 4 4 4 4 4 4 
2 0 1 0 16
0 0 200
0 1 115
0 2 110
0 3 123
1 0 118
1 1 10000
1 2 28
1 3 41
2 0 107
2 1 22
2 2 10000
2 3 30
3 0 124
3 1 39
3 2 34
3 3 10000
2 0 5 0 16
0 0 200
0 1 122
0 2 102
0 3 123
1 0 118
1 1 10000
1 2 20
1 3 41
2 0 107
2 1 29
2 2 10000
2 3 30
3 0 124
3 1 46
3 2 26
3 3 10000
2 0 6 0 16
0 0 200
0 1 110
0 2 124
0 3 111
1 0 118
1 1 10000
1 2 42
1 3 29
2 0 107
2 1 17
2 2 10000
2 3 18
3 0 124
3 1 34
3 2 48
3 3 10000
2 1 2 0 16
0 0 200
0 1 103
0 2 108
0 3 120
1 0 115
1 1 10000
1 2 23
1 3 35
2 0 110
2 1 13
2 2 10000
2 3 30
3 0 123
3 1 26
3 2 31
3 3 10000
2 1 5 0 16
0 0 200
0 1 122
0 2 102
0 3 123
1 0 115
1 1 10000
1 2 17
1 3 38
2 0 110
2 1 32
2 2 10000
2 3 33
3 0 123
3 1 45
3 2 25
3 3 10000
2 1 6 0 16
0 0 200
0 1 110
0 2 124
0 3 111
1 0 115
1 1 10000
1 2 39
1 3 26
2 0 110
2 1 20
2 2 10000
2 3 21
3 0 123
3 1 33
3 2 47
3 3 10000
2 1 7 0 16
0 0 200
0 1 115
0 2 103
0 3 102
1 0 115
1 1 10000
1 2 18
1 3 17
2 0 110
2 1 25
2 2 10000
2 3 12
3 0 123
3 1 38
3 2 26
3 3 10000
2 2 8 0 16
0 0 200
0 1 104
0 2 107
0 3 104
1 0 103
1 1 10000
1 2 10
1 3 7
2 0 108
2 1 12
2 2 10000
2 3 12
3 0 120
3 1 24
3 2 27
3 3 10000
2 2 3 0 16
0 0 200
0 1 121
0 2 101
0 3 111
1 0 103
1 1 10000
1 2 4
1 3 14
2 0 108
2 1 29
2 2 10000
2 3 19
3 0 120
3 1 41
3 2 21
3 3 10000
2 2 6 0 16
0 0 200
0 1 110
0 2 124
0 3 111
1 0 103
1 1 10000
1 2 27
1 3 14
2 0 108
2 1 18
2 2 10000
2 3 19
3 0 120
3 1 30
3 2 44
3 3 10000
2 2 7 0 16
0 0 200
0 1 115
0 2 103
0 3 102
1 0 103
1 1 10000
1 2 6
1 3 5
2 0 108
2 1 23
2 2 10000
2 3 10
3 0 120
3 1 35
3 2 23
3 3 10000
2 3 8 0 16
0 0 200
0 1 104
0 2 107
0 3 104
1 0 121
1 1 10000
1 2 28
1 3 25
2 0 101
2 1 5
2 2 10000
2 3 5
3 0 111
3 1 15
3 2 18
3 3 10000
2 3 9 0 16
0 0 200
0 1 120
0 2 102
0 3 113
1 0 121
1 1 10000
1 2 23
1 3 34
2 0 101
2 1 21
2 2 10000
2 3 14
3 0 111
3 1 31
3 2 13
3 3 10000
2 3 4 0 16
0 0 200
0 1 121
0 2 119
0 3 121
1 0 121
1 1 10000
1 2 40
1 3 42
2 0 101
2 1 22
2 2 10000
2 3 22
3 0 111
3 1 32
3 2 30
3 3 10000
2 3 7 0 16
0 0 200
0 1 115
0 2 103
0 3 102
1 0 121
1 1 10000
1 2 24
1 3 23
2 0 101
2 1 16
2 2 10000
2 3 3
3 0 111
3 1 26
3 2 14
3 3 10000
2 4 8 0 16
0 0 200
0 1 104
0 2 107
0 3 104
1 0 121
1 1 10000
1 2 28
1 3 25
2 0 119
2 1 23
2 2 10000
2 3 23
3 0 121
3 1 25
3 2 28
3 3 10000
2 4 9 0 16
0 0 200
0 1 120
0 2 102
0 3 113
1 0 121
1 1 10000
1 2 23
1 3 34
2 0 119
2 1 39
2 2 10000
2 3 32
3 0 121
3 1 41
3 2 23
3 3 10000
2 5 10 0 16
0 0 200
0 1 112
0 2 122
0 3 122
1 0 122
1 1 10000
1 2 44
1 3 44
2 0 102
2 1 14
2 2 10000
2 3 24
3 0 123
3 1 35
3 2 45
3 3 10000
2 5 11 0 16
0 0 200
0 1 113
0 2 114
0 3 107
1 0 122
1 1 10000
1 2 36
1 3 29
2 0 102
2 1 15
2 2 10000
2 3 9
3 0 123
3 1 36
3 2 37
3 3 10000
2 5 6 0 16
0 0 200
0 1 110
0 2 124
0 3 111
1 0 122
1 1 10000
1 2 46
1 3 33
2 0 102
2 1 12
2 2 10000
2 3 13
3 0 123
3 1 33
3 2 47
3 3 10000
2 6 7 0 16
0 0 200
0 1 115
0 2 103
0 3 102
1 0 110
1 1 10000
1 2 13
1 3 12
2 0 124
2 1 39
2 2 10000
2 3 26
3 0 111
3 1 26
3 2 14
3 3 10000
2 6 10 0 16
0 0 200
0 1 112
0 2 122
0 3 122
1 0 110
1 1 10000
1 2 32
1 3 32
2 0 124
2 1 36
2 2 10000
2 3 46
3 0 111
3 1 23
3 2 33
3 3 10000
2 6 11 0 16
0 0 200
0 1 113
0 2 114
0 3 107
1 0 110
1 1 10000
1 2 24
1 3 17
2 0 124
2 1 37
2 2 10000
2 3 31
3 0 111
3 1 24
3 2 25
3 3 10000
2 6 12 0 16
0 0 200
0 1 111
0 2 118
0 3 116
1 0 110
1 1 10000
1 2 28
1 3 26
2 0 124
2 1 35
2 2 10000
2 3 40
3 0 111
3 1 22
3 2 29
3 3 10000
2 7 8 0 16
0 0 200
0 1 104
0 2 107
0 3 104
1 0 115
1 1 10000
1 2 22
1 3 19
2 0 103
2 1 7
2 2 10000
2 3 7
3 0 102
3 1 6
3 2 9
3 3 10000
2 7 11 0 16
0 0 200
0 1 113
0 2 114
0 3 107
1 0 115
1 1 10000
1 2 29
1 3 22
2 0 103
2 1 16
2 2 10000
2 3 10
3 0 102
3 1 15
3 2 16
3 3 10000
2 7 12 0 16
0 0 200
0 1 111
0 2 118
0 3 116
1 0 115
1 1 10000
1 2 33
1 3 31
2 0 103
2 1 14
2 2 10000
2 3 19
3 0 102
3 1 13
3 2 20
3 3 10000
2 7 13 0 16
0 0 200
0 1 106
0 2 116
0 3 117
1 0 115
1 1 10000
1 2 31
1 3 32
2 0 103
2 1 9
2 2 10000
2 3 20
3 0 102
3 1 8
3 2 18
3 3 10000
2 8 9 0 16
0 0 200
0 1 120
0 2 102
0 3 113
1 0 104
1 1 10000
1 2 6
1 3 17
2 0 107
2 1 27
2 2 10000
2 3 20
3 0 104
3 1 24
3 2 6
3 3 10000
2 8 12 0 16
0 0 200
0 1 111
0 2 118
0 3 116
1 0 104
1 1 10000
1 2 22
1 3 20
2 0 107
2 1 18
2 2 10000
2 3 23
3 0 104
3 1 15
3 2 22
3 3 10000
2 8 13 0 16
0 0 200
0 1 106
0 2 116
0 3 117
1 0 104
1 1 10000
1 2 20
1 3 21
2 0 107
2 1 13
2 2 10000
2 3 24
3 0 104
3 1 10
3 2 20
3 3 10000
2 8 14 0 16
0 0 200
0 1 117
0 2 112
0 3 113
1 0 104
1 1 10000
1 2 16
1 3 17
2 0 107
2 1 24
2 2 10000
2 3 20
3 0 104
3 1 21
3 2 16
3 3 10000
2 9 13 0 16
0 0 200
0 1 106
0 2 116
0 3 117
1 0 120
1 1 10000
1 2 36
1 3 37
2 0 102
2 1 8
2 2 10000
2 3 19
3 0 113
3 1 19
3 2 29
3 3 10000
2 9 14 0 16
0 0 200
0 1 117
0 2 112
0 3 113
1 0 120
1 1 10000
1 2 32
1 3 33
2 0 102
2 1 19
2 2 10000
2 3 15
3 0 113
3 1 30
3 2 25
3 3 10000
2 10 16 0 16
0 0 200
0 1 114
0 2 123
0 3 117
1 0 112
1 1 10000
1 2 35
1 3 29
2 0 122
2 1 36
2 2 10000
2 3 39
3 0 122
3 1 36
3 2 45
3 3 10000
2 10 11 0 16
0 0 200
0 1 113
0 2 114
0 3 107
1 0 112
1 1 10000
1 2 26
1 3 19
2 0 122
2 1 35
2 2 10000
2 3 29
3 0 122
3 1 35
3 2 36
3 3 10000
2 10 15 0 16
0 0 200
0 1 116
0 2 111
0 3 118
1 0 112
1 1 10000
1 2 23
1 3 30
2 0 122
2 1 38
2 2 10000
2 3 40
3 0 122
3 1 38
3 2 33
3 3 10000
2 11 12 0 16
0 0 200
0 1 111
0 2 118
0 3 116
1 0 113
1 1 10000
1 2 31
1 3 29
2 0 114
2 1 25
2 2 10000
2 3 30
3 0 107
3 1 18
3 2 25
3 3 10000
2 11 15 0 16
0 0 200
0 1 116
0 2 111
0 3 118
1 0 113
1 1 10000
1 2 24
1 3 31
2 0 114
2 1 30
2 2 10000
2 3 32
3 0 107
3 1 23
3 2 18
3 3 10000
2 11 16 0 16
0 0 200
0 1 114
0 2 123
0 3 117
1 0 113
1 1 10000
1 2 36
1 3 30
2 0 114
2 1 28
2 2 10000
2 3 31
3 0 107
3 1 21
3 2 30
3 3 10000
2 11 17 0 16
0 0 200
0 1 101
0 2 113
0 3 122
1 0 113
1 1 10000
1 2 26
1 3 35
2 0 114
2 1 15
2 2 10000
2 3 36
3 0 107
3 1 8
3 2 20
3 3 10000
2 12 13 0 16
0 0 200
0 1 106
0 2 116
0 3 117
1 0 111
1 1 10000
1 2 27
1 3 28
2 0 118
2 1 24
2 2 10000
2 3 35
3 0 116
3 1 22
3 2 32
3 3 10000
2 12 16 0 16
0 0 200
0 1 114
0 2 123
0 3 117
1 0 111
1 1 10000
1 2 34
1 3 28
2 0 118
2 1 32
2 2 10000
2 3 35
3 0 116
3 1 30
3 2 39
3 3 10000
2 12 17 0 16
0 0 200
0 1 101
0 2 113
0 3 122
1 0 111
1 1 10000
1 2 24
1 3 33
2 0 118
2 1 19
2 2 10000
2 3 40
3 0 116
3 1 17
3 2 29
3 3 10000
2 12 18 0 16
0 0 200
0 1 105
0 2 118
0 3 104
1 0 111
1 1 10000
1 2 29
1 3 15
2 0 118
2 1 23
2 2 10000
2 3 22
3 0 116
3 1 21
3 2 34
3 3 10000
2 13 14 0 16
0 0 200
0 1 117
0 2 112
0 3 113
1 0 106
1 1 10000
1 2 18
1 3 19
2 0 116
2 1 33
2 2 10000
2 3 29
3 0 117
3 1 34
3 2 29
3 3 10000
2 13 17 0 16
0 0 200
0 1 101
0 2 113
0 3 122
1 0 106
1 1 10000
1 2 19
1 3 28
2 0 116
2 1 17
2 2 10000
2 3 38
3 0 117
3 1 18
3 2 30
3 3 10000
2 13 18 0 16
0 0 200
0 1 105
0 2 118
0 3 104
1 0 106
1 1 10000
1 2 24
1 3 10
2 0 116
2 1 21
2 2 10000
2 3 20
3 0 117
3 1 22
3 2 35
3 3 10000
2 13 19 0 16
0 0 200
0 1 111
0 2 113
0 3 109
1 0 106
1 1 10000
1 2 19
1 3 15
2 0 116
2 1 27
2 2 10000
2 3 25
3 0 117
3 1 28
3 2 30
3 3 10000
2 14 18 0 16
0 0 200
0 1 105
0 2 118
0 3 104
1 0 117
1 1 10000
1 2 35
1 3 21
2 0 112
2 1 17
2 2 10000
2 3 16
3 0 113
3 1 18
3 2 31
3 3 10000
2 14 19 0 16
0 0 200
0 1 111
0 2 113
0 3 109
1 0 117
1 1 10000
1 2 30
1 3 26
2 0 112
2 1 23
2 2 10000
2 3 21
3 0 113
3 1 24
3 2 26
3 3 10000
2 15 16 0 16
0 0 200
0 1 114
0 2 123
0 3 117
1 0 116
1 1 10000
1 2 39
1 3 33
2 0 111
2 1 25
2 2 10000
2 3 28
3 0 118
3 1 32
3 2 41
3 3 10000
2 15 20 0 16
0 0 200
0 1 124
0 2 102
0 3 106
1 0 116
1 1 10000
1 2 18
1 3 22
2 0 111
2 1 35
2 2 10000
2 3 17
3 0 118
3 1 42
3 2 20
3 3 10000
2 15 21 0 16
0 0 200
0 1 121
0 2 118
0 3 123
1 0 116
1 1 10000
1 2 34
1 3 39
2 0 111
2 1 32
2 2 10000
2 3 34
3 0 118
3 1 39
3 2 36
3 3 10000
2 16 17 0 16
0 0 200
0 1 101
0 2 113
0 3 122
1 0 114
1 1 10000
1 2 27
1 3 36
2 0 123
2 1 24
2 2 10000
2 3 45
3 0 117
3 1 18
3 2 30
3 3 10000
2 16 20 0 16
0 0 200
0 1 124
0 2 102
0 3 106
1 0 114
1 1 10000
1 2 16
1 3 20
2 0 123
2 1 47
2 2 10000
2 3 29
3 0 117
3 1 41
3 2 19
3 3 10000
2 16 21 0 16
0 0 200
0 1 121
0 2 118
0 3 123
1 0 114
1 1 10000
1 2 32
1 3 37
2 0 123
2 1 44
2 2 10000
2 3 46
3 0 117
3 1 38
3 2 35
3 3 10000
2 16 22 0 16
0 0 200
0 1 104
0 2 104
0 3 116
1 0 114
1 1 10000
1 2 18
1 3 30
2 0 123
2 1 27
2 2 10000
2 3 39
3 0 117
3 1 21
3 2 21
3 3 10000
2 17 18 0 16
0 0 200
0 1 105
0 2 118
0 3 104
1 0 101
1 1 10000
1 2 19
1 3 5
2 0 113
2 1 18
2 2 10000
2 3 17
3 0 122
3 1 27
3 2 40
3 3 10000
2 17 21 0 16
0 0 200
0 1 121
0 2 118
0 3 123
1 0 101
1 1 10000
1 2 19
1 3 24
2 0 113
2 1 34
2 2 10000
2 3 36
3 0 122
3 1 43
3 2 40
3 3 10000
2 17 22 0 16
0 0 200
0 1 104
0 2 104
0 3 116
1 0 101
1 1 10000
1 2 5
1 3 17
2 0 113
2 1 17
2 2 10000
2 3 29
3 0 122
3 1 26
3 2 26
3 3 10000
2 17 23 0 16
0 0 200
0 1 122
0 2 113
0 3 107
1 0 101
1 1 10000
1 2 14
1 3 8
2 0 113
2 1 35
2 2 10000
2 3 20
3 0 122
3 1 44
3 2 35
3 3 10000
2 18 19 0 16
0 0 200
0 1 111
0 2 113
0 3 109
1 0 105
1 1 10000
1 2 18
1 3 14
2 0 118
2 1 29
2 2 10000
2 3 27
3 0 104
3 1 15
3 2 17
3 3 10000
2 18 22 0 16
0 0 200
0 1 104
0 2 104
0 3 116
1 0 105
1 1 10000
1 2 9
1 3 21
2 0 118
2 1 22
2 2 10000
2 3 34
3 0 104
3 1 8
3 2 8
3 3 10000
2 18 23 0 16
0 0 200
0 1 122
0 2 113
0 3 107
1 0 105
1 1 10000
1 2 18
1 3 12
2 0 118
2 1 40
2 2 10000
2 3 25
3 0 104
3 1 26
3 2 17
3 3 10000
2 18 24 0 16
0 0 200
0 1 116
0 2 107
0 3 121
1 0 105
1 1 10000
1 2 12
1 3 26
2 0 118
2 1 34
2 2 10000
2 3 39
3 0 104
3 1 20
3 2 11
3 3 10000
2 19 24 0 16
0 0 200
0 1 116
0 2 107
0 3 121
1 0 111
1 1 10000
1 2 18
1 3 32
2 0 113
2 1 29
2 2 10000
2 3 34
3 0 109
3 1 25
3 2 16
3 3 10000
2 19 23 0 16
0 0 200
0 1 122
0 2 113
0 3 107
1 0 111
1 1 10000
1 2 24
1 3 18
2 0 113
2 1 35
2 2 10000
2 3 20
3 0 109
3 1 31
3 2 22
3 3 10000
2 20 21 0 16
0 0 200
0 1 121
0 2 118
0 3 123
1 0 124
1 1 10000
1 2 42
1 3 47
2 0 102
2 1 23
2 2 10000
2 3 25
3 0 106
3 1 27
3 2 24
3 3 10000
2 21 22 0 16
0 0 200
0 1 104
0 2 104
0 3 116
1 0 121
1 1 10000
1 2 25
1 3 37
2 0 118
2 1 22
2 2 10000
2 3 34
3 0 123
3 1 27
3 2 27
3 3 10000
2 22 23 0 16
0 0 200
0 1 122
0 2 113
0 3 107
1 0 104
1 1 10000
1 2 17
1 3 11
2 0 104
2 1 26
2 2 10000
2 3 11
3 0 116
3 1 38
3 2 29
3 3 10000
2 23 24 0 16
0 0 200
0 1 116
0 2 107
0 3 121
1 0 122
1 1 10000
1 2 29
1 3 43
2 0 113
2 1 29
2 2 10000
2 3 34
3 0 107
3 1 23
3 2 14
3 3 10000
